NAME: tsp_198
COMMENT: Random TSP instance
TYPE: TSP
DIMENSION: 50
EDGE_WEIGHT_TYPE: EUC_2D
NODE_COORD_SECTION
1 142 435
2 240 659
3 719 228
4 416 846
5 951 844
6 366 927
7 796 274
8 583 741
9 11 867
10 255 690
11 468 526
12 28 758
13 967 880
14 47 255
15 721 574
16 897 843
17 718 7
18 394 712
19 411 892
20 262 332
21 323 139
22 377 460
23 327 65
24 381 490
25 405 271
26 944 926
27 778 184
28 88 450
29 828 236
30 553 662
31 470 19
32 884 650
33 176 68
34 330 146
35 312 439
36 854 899
37 851 909
38 686 877
39 268 347
40 215 362
41 411 135
42 243 191
43 160 248
44 69 746
45 885 722
46 355 439
47 506 153
48 148 464
49 708 907
50 295 594
